TOPIC = { T1, T2, T3, T4, T5, T6, T7, T8, T9, T10, T11, T12, T13, T14, T15, T16 };
hours = [5,5,5,5,6,5,5,5,5,5,8,7,6,5,5,6];
m = 8;
before = [T1,T1,T4,T5,T7,T10,T12,T16];
after  = [T2,T4,T7,T8,T10,T6,T3,T3];
morning = { T11, T6, T15, T16, T5 };
D = 28; 
H = 8;
HALF = {3,4,7,9,11,13,14,16,17,20,22};